c colouring generated by benchmark framework
p edge 188 3885
v 1 25
v 2 14
v 3 11
v 4 10
v 5 28
v 6 1
v 7 3
v 8 30
v 9 26
v 10 21
v 11 18
v 12 12
v 13 0
v 14 15
v 15 2
v 16 5
v 17 4
v 18 5
v 19 30
v 20 19
v 21 16
v 22 13
v 23 0
v 24 2
v 25 9
v 26 15
v 27 3
v 28 23
v 29 1
v 30 14
v 31 12
v 32 7
v 33 27
v 34 31
v 35 26
v 36 26
v 37 8
v 38 24
v 39 6
v 40 6
v 41 6
v 42 6
v 43 6
v 44 6
v 45 6
v 46 6
v 47 6
v 48 6
v 49 6
v 50 7
v 51 19
v 52 8
v 53 9
v 54 31
v 55 6
v 56 20
v 57 24
v 58 6
v 59 6
v 60 18
v 61 23
v 62 6
v 63 13
v 64 16
v 65 22
v 66 20
v 67 17
v 68 22
v 69 27
v 70 16
v 71 29
v 72 6
v 73 6
v 74 8
v 75 6
v 76 6
v 77 6
v 78 20
v 79 8
v 80 10
v 81 11
v 82 17
v 83 6
v 84 20
v 85 8
v 86 10
v 87 21
v 88 24
v 89 11
v 90 17
v 91 20
v 92 20
v 93 21
v 94 22
v 95 22
v 96 24
v 97 26
v 98 24
v 99 27
v 100 26
v 101 24
v 102 24
v 103 24
v 104 24
v 105 24
v 106 24
v 107 24
v 108 24
v 109 5
v 110 26
v 111 27
v 112 24
v 113 24
v 114 26
v 115 31
v 116 28
v 117 27
v 118 27
v 119 24
v 120 24
v 121 26
v 122 26
v 123 27
v 124 26
v 125 21
v 126 6
v 127 31
v 128 26
v 129 29
v 130 27
v 131 24
v 132 27
v 133 27
v 134 24
v 135 27
v 136 27
v 137 24
v 138 24
v 139 12
v 140 26
v 141 5
v 142 24
v 143 24
v 144 27
v 145 29
v 146 27
v 147 27
v 148 24
v 149 24
v 150 21
v 151 27
v 152 29
v 153 20
v 154 27
v 155 29
v 156 27
v 157 27
v 158 27
v 159 27
v 160 27
v 161 17
v 162 8
v 163 6
v 164 17
v 165 22
v 166 20
v 167 17
v 168 6
v 169 20
v 170 18
v 171 26
v 172 17
v 173 11
v 174 10
v 175 8
v 176 6
v 177 6
v 178 8
v 179 6
v 180 20
v 181 15
v 182 8
v 183 24
v 184 13
v 185 25
v 186 27
v 187 6
v 188 10
